10J3M/DAT/10J3MNLX-16.dat
10 3
16.9024 4.1113
22.8746 4.7827
27.7567 5.2685
32.319 5.685
23.8819 4.8869
17.318 4.1615
21.7055 4.6589
26.2445 5.1229
28.3185 5.3215
23.8313 4.8817
16.2936