10J3M/SOL/10J3MNLX-16.sol
solution status: optimal solution found
objective value:                     88.8664249837274
x#1#2                                               1 	(obj:0)
x#2#3                                               1 	(obj:0)
x#3#1                              0.0732945324000042 	(obj:0)
x#3#3                               0.926705467599996 	(obj:0)
x#4#2                               0.581019115926472 	(obj:0)
x#4#3                               0.418980884073528 	(obj:0)
x#5#1                                0.24203792554299 	(obj:0)
x#5#3                                0.75796207445701 	(obj:0)
x#6#1                                               1 	(obj:0)
x#7#1                                               1 	(obj:0)
x#8#2                                               1 	(obj:0)
x#9#2                               0.759858473641726 	(obj:0)
x#9#3                               0.240117999714347 	(obj:0)
x#10#1                                              1 	(obj:0)
z                                    88.8664249837274 	(obj:1)
